SYSTEM=ICE
ISMEAR=0
IBRION=2
EDIFF=3E-7
EDIFFG=-0.003
ENCUT=550
NSW=1000
ALGO=V
LREAL=Auto
LWAVE=.FALSE.
LCHARG=.FALSE.
LCONF=2
CONF_WIDTH=6.0
CONF_MORSE_D=0.0578
CONF_MORSE_A=0.92
CONF_MORSE_R=3.85
CONF_TYPE=2
CONF_POT=2
PSTRESS_FINITE=20
ISIF=31
GGA = OR
LUSE_VDW = .TRUE.
AGGAC = 0.0000

