SYSTEM=ICE
ISMEAR=0
IBRION=2
PREC=Accurate
EDIFF=1E-9
EDIFFG=-0.0001
ENCUT=550
NSW=500
ALGO=V
LREAL=Auto
LWAVE=.FALSE.
LCHARG=.FALSE.
LCONF=2
CONF_WIDTH=5.0
CONF_LJ_SIGMA=3.0
CONF_LJ_EPSILON=0.0217
CONF_TYPE=2
CONF_POT=1
PSTRESS_FINITE=0.001
ISIF=31
GGA = OR
LUSE_VDW = .TRUE.
AGGAC = 0.0000

