H O
 1.0
 2.983  0 0
 0  4.580 0
 0 0  20.000  
 H O
 4 2
Cart
  0.158   0.454   3.144  
  1.326  -0.267   2.441  
  2.825   2.744   1.856  
  1.657   2.023   2.559  
  0.865   0.596   2.517  
  2.118   2.886   2.483  
